check/instances/MIP/1-FullIns_3_reopt/1-FullIns_3.lp
\ SCIP STATISTICS
\   Problem name     : pricing_block_0
\   Variables        : 31 (31 binary, 0 integer, 0 implicit integer, 0 continuous)
\   Constraints      : 101
\   Obj. scale       : 1
\   Obj. offset      : 0
Minimize
 Obj:
Subject to
 p0_b_use_;1;: +1 pr0_t_x#1#1 +1 pr0_t_x#2#1 +1 pr0_t_x#3#1 +1 pr0_t_x#4#1 +1 pr0_t_x#5#1 +1 pr0_t_x#6#1
  +1 pr0_t_x#7#1 +1 pr0_t_x#8#1 +1 pr0_t_x#9#1 +1 pr0_t_x#10#1 +1 pr0_t_x#11#1 +1 pr0_t_x#12#1 +1 pr0_t_x#13#1
  +1 pr0_t_x#14#1 +1 pr0_t_x#15#1 +1 pr0_t_x#16#1 +1 pr0_t_x#17#1 +1 pr0_t_x#18#1 +1 pr0_t_x#19#1 +1 pr0_t_x#20#1
  +1 pr0_t_x#21#1 +1 pr0_t_x#22#1 +1 pr0_t_x#23#1 +1 pr0_t_x#24#1 +1 pr0_t_x#25#1 +1 pr0_t_x#26#1 +1 pr0_t_x#27#1
  +1 pr0_t_x#28#1 +1 pr0_t_x#29#1 +1 pr0_t_x#30#1 -30 pr0_t_y#1 <= +0
 p0_b_edge_;1;1;: +1 pr0_t_x#1#1 +1 pr0_t_x#2#1 <= +1
 p0_b_edge_;1;2;: +1 pr0_t_x#1#1 +1 pr0_t_x#4#1 <= +1
 p0_b_edge_;1;3;: +1 pr0_t_x#1#1 +1 pr0_t_x#11#1 <= +1
 p0_b_edge_;1;4;: +1 pr0_t_x#1#1 +1 pr0_t_x#13#1 <= +1
 p0_b_edge_;1;5;: +1 pr0_t_x#2#1 +1 pr0_t_x#3#1 <= +1
 p0_b_edge_;1;6;: +1 pr0_t_x#2#1 +1 pr0_t_x#10#1 <= +1
 p0_b_edge_;1;7;: +1 pr0_t_x#2#1 +1 pr0_t_x#12#1 <= +1
 p0_b_edge_;1;8;: +1 pr0_t_x#3#1 +1 pr0_t_x#6#1 <= +1
 p0_b_edge_;1;9;: +1 pr0_t_x#3#1 +1 pr0_t_x#8#1 <= +1
 p0_b_edge_;1;10;: +1 pr0_t_x#3#1 +1 pr0_t_x#11#1 <= +1
 p0_b_edge_;1;11;: +1 pr0_t_x#3#1 +1 pr0_t_x#15#1 <= +1
 p0_b_edge_;1;12;: +1 pr0_t_x#3#1 +1 pr0_t_x#17#1 <= +1
 p0_b_edge_;1;13;: +1 pr0_t_x#4#1 +1 pr0_t_x#5#1 <= +1
 p0_b_edge_;1;14;: +1 pr0_t_x#4#1 +1 pr0_t_x#8#1 <= +1
 p0_b_edge_;1;15;: +1 pr0_t_x#4#1 +1 pr0_t_x#10#1 <= +1
 p0_b_edge_;1;16;: +1 pr0_t_x#4#1 +1 pr0_t_x#14#1 <= +1
 p0_b_edge_;1;17;: +1 pr0_t_x#4#1 +1 pr0_t_x#17#1 <= +1
 p0_b_edge_;1;18;: +1 pr0_t_x#5#1 +1 pr0_t_x#7#1 <= +1
 p0_b_edge_;1;19;: +1 pr0_t_x#5#1 +1 pr0_t_x#9#1 <= +1
 p0_b_edge_;1;20;: +1 pr0_t_x#5#1 +1 pr0_t_x#13#1 <= +1
 p0_b_edge_;1;21;: +1 pr0_t_x#5#1 +1 pr0_t_x#16#1 <= +1
 p0_b_edge_;1;22;: +1 pr0_t_x#5#1 +1 pr0_t_x#18#1 <= +1
 p0_b_edge_;1;23;: +1 pr0_t_x#6#1 +1 pr0_t_x#7#1 <= +1
 p0_b_edge_;1;24;: +1 pr0_t_x#6#1 +1 pr0_t_x#9#1 <= +1
 p0_b_edge_;1;25;: +1 pr0_t_x#6#1 +1 pr0_t_x#12#1 <= +1
 p0_b_edge_;1;26;: +1 pr0_t_x#6#1 +1 pr0_t_x#16#1 <= +1
 p0_b_edge_;1;27;: +1 pr0_t_x#6#1 +1 pr0_t_x#18#1 <= +1
 p0_b_edge_;1;28;: +1 pr0_t_x#7#1 +1 pr0_t_x#8#1 <= +1
 p0_b_edge_;1;29;: +1 pr0_t_x#7#1 +1 pr0_t_x#9#1 <= +1
 p0_b_edge_;1;30;: +1 pr0_t_x#7#1 +1 pr0_t_x#14#1 <= +1
 p0_b_edge_;1;31;: +1 pr0_t_x#7#1 +1 pr0_t_x#15#1 <= +1
 p0_b_edge_;1;32;: +1 pr0_t_x#7#1 +1 pr0_t_x#17#1 <= +1
 p0_b_edge_;1;33;: +1 pr0_t_x#7#1 +1 pr0_t_x#18#1 <= +1
 p0_b_edge_;1;34;: +1 pr0_t_x#8#1 +1 pr0_t_x#9#1 <= +1
 p0_b_edge_;1;35;: +1 pr0_t_x#8#1 +1 pr0_t_x#12#1 <= +1
 p0_b_edge_;1;36;: +1 pr0_t_x#8#1 +1 pr0_t_x#13#1 <= +1
 p0_b_edge_;1;37;: +1 pr0_t_x#8#1 +1 pr0_t_x#16#1 <= +1
 p0_b_edge_;1;38;: +1 pr0_t_x#8#1 +1 pr0_t_x#18#1 <= +1
 p0_b_edge_;1;39;: +1 pr0_t_x#9#1 +1 pr0_t_x#14#1 <= +1
 p0_b_edge_;1;40;: +1 pr0_t_x#9#1 +1 pr0_t_x#15#1 <= +1
 p0_b_edge_;1;41;: +1 pr0_t_x#9#1 +1 pr0_t_x#16#1 <= +1
 p0_b_edge_;1;42;: +1 pr0_t_x#9#1 +1 pr0_t_x#17#1 <= +1
 p0_b_edge_;1;43;: +1 pr0_t_x#10#1 +1 pr0_t_x#20#1 <= +1
 p0_b_edge_;1;44;: +1 pr0_t_x#10#1 +1 pr0_t_x#22#1 <= +1
 p0_b_edge_;1;45;: +1 pr0_t_x#10#1 +1 pr0_t_x#29#1 <= +1
 p0_b_edge_;1;46;: +1 pr0_t_x#11#1 +1 pr0_t_x#19#1 <= +1
 p0_b_edge_;1;47;: +1 pr0_t_x#11#1 +1 pr0_t_x#21#1 <= +1
 p0_b_edge_;1;48;: +1 pr0_t_x#11#1 +1 pr0_t_x#29#1 <= +1
 p0_b_edge_;1;49;: +1 pr0_t_x#12#1 +1 pr0_t_x#20#1 <= +1
 p0_b_edge_;1;50;: +1 pr0_t_x#12#1 +1 pr0_t_x#24#1 <= +1
 p0_b_edge_;1;51;: +1 pr0_t_x#12#1 +1 pr0_t_x#26#1 <= +1
 p0_b_edge_;1;52;: +1 pr0_t_x#12#1 +1 pr0_t_x#29#1 <= +1
 p0_b_edge_;1;53;: +1 pr0_t_x#13#1 +1 pr0_t_x#19#1 <= +1
 p0_b_edge_;1;54;: +1 pr0_t_x#13#1 +1 pr0_t_x#23#1 <= +1
 p0_b_edge_;1;55;: +1 pr0_t_x#13#1 +1 pr0_t_x#26#1 <= +1
 p0_b_edge_;1;56;: +1 pr0_t_x#13#1 +1 pr0_t_x#29#1 <= +1
 p0_b_edge_;1;57;: +1 pr0_t_x#14#1 +1 pr0_t_x#22#1 <= +1
 p0_b_edge_;1;58;: +1 pr0_t_x#14#1 +1 pr0_t_x#25#1 <= +1
 p0_b_edge_;1;59;: +1 pr0_t_x#14#1 +1 pr0_t_x#27#1 <= +1
 p0_b_edge_;1;60;: +1 pr0_t_x#14#1 +1 pr0_t_x#29#1 <= +1
 p0_b_edge_;1;61;: +1 pr0_t_x#15#1 +1 pr0_t_x#21#1 <= +1
 p0_b_edge_;1;62;: +1 pr0_t_x#15#1 +1 pr0_t_x#25#1 <= +1
 p0_b_edge_;1;63;: +1 pr0_t_x#15#1 +1 pr0_t_x#27#1 <= +1
 p0_b_edge_;1;64;: +1 pr0_t_x#15#1 +1 pr0_t_x#29#1 <= +1
 p0_b_edge_;1;65;: +1 pr0_t_x#16#1 +1 pr0_t_x#23#1 <= +1
 p0_b_edge_;1;66;: +1 pr0_t_x#16#1 +1 pr0_t_x#24#1 <= +1
 p0_b_edge_;1;67;: +1 pr0_t_x#16#1 +1 pr0_t_x#26#1 <= +1
 p0_b_edge_;1;68;: +1 pr0_t_x#16#1 +1 pr0_t_x#27#1 <= +1
 p0_b_edge_;1;69;: +1 pr0_t_x#16#1 +1 pr0_t_x#29#1 <= +1
 p0_b_edge_;1;70;: +1 pr0_t_x#17#1 +1 pr0_t_x#21#1 <= +1
 p0_b_edge_;1;71;: +1 pr0_t_x#17#1 +1 pr0_t_x#22#1 <= +1
 p0_b_edge_;1;72;: +1 pr0_t_x#17#1 +1 pr0_t_x#25#1 <= +1
 p0_b_edge_;1;73;: +1 pr0_t_x#17#1 +1 pr0_t_x#27#1 <= +1
 p0_b_edge_;1;74;: +1 pr0_t_x#17#1 +1 pr0_t_x#29#1 <= +1
 p0_b_edge_;1;75;: +1 pr0_t_x#18#1 +1 pr0_t_x#23#1 <= +1
 p0_b_edge_;1;76;: +1 pr0_t_x#18#1 +1 pr0_t_x#24#1 <= +1
 p0_b_edge_;1;77;: +1 pr0_t_x#18#1 +1 pr0_t_x#25#1 <= +1
 p0_b_edge_;1;78;: +1 pr0_t_x#18#1 +1 pr0_t_x#26#1 <= +1
 p0_b_edge_;1;79;: +1 pr0_t_x#18#1 +1 pr0_t_x#29#1 <= +1
 p0_b_edge_;1;80;: +1 pr0_t_x#19#1 +1 pr0_t_x#28#1 <= +1
 p0_b_edge_;1;81;: +1 pr0_t_x#19#1 +1 pr0_t_x#30#1 <= +1
 p0_b_edge_;1;82;: +1 pr0_t_x#20#1 +1 pr0_t_x#28#1 <= +1
 p0_b_edge_;1;83;: +1 pr0_t_x#20#1 +1 pr0_t_x#30#1 <= +1
 p0_b_edge_;1;84;: +1 pr0_t_x#21#1 +1 pr0_t_x#28#1 <= +1
 p0_b_edge_;1;85;: +1 pr0_t_x#21#1 +1 pr0_t_x#30#1 <= +1
 p0_b_edge_;1;86;: +1 pr0_t_x#22#1 +1 pr0_t_x#28#1 <= +1
 p0_b_edge_;1;87;: +1 pr0_t_x#22#1 +1 pr0_t_x#30#1 <= +1
 p0_b_edge_;1;88;: +1 pr0_t_x#23#1 +1 pr0_t_x#28#1 <= +1
 p0_b_edge_;1;89;: +1 pr0_t_x#23#1 +1 pr0_t_x#30#1 <= +1
 p0_b_edge_;1;90;: +1 pr0_t_x#24#1 +1 pr0_t_x#28#1 <= +1
 p0_b_edge_;1;91;: +1 pr0_t_x#24#1 +1 pr0_t_x#30#1 <= +1
 p0_b_edge_;1;92;: +1 pr0_t_x#25#1 +1 pr0_t_x#28#1 <= +1
 p0_b_edge_;1;93;: +1 pr0_t_x#25#1 +1 pr0_t_x#30#1 <= +1
 p0_b_edge_;1;94;: +1 pr0_t_x#26#1 +1 pr0_t_x#28#1 <= +1
 p0_b_edge_;1;95;: +1 pr0_t_x#26#1 +1 pr0_t_x#30#1 <= +1
 p0_b_edge_;1;96;: +1 pr0_t_x#27#1 +1 pr0_t_x#28#1 <= +1
 p0_b_edge_;1;97;: +1 pr0_t_x#27#1 +1 pr0_t_x#30#1 <= +1
 p0_b_edge_;1;98;: +1 pr0_t_x#28#1 +1 pr0_t_x#29#1 <= +1
 p0_b_edge_;1;99;: +1 pr0_t_x#28#1 +1 pr0_t_x#30#1 <= +1
 p0_b_edge_;1;100;: +1 pr0_t_x#29#1 +1 pr0_t_x#30#1 <= +1
Bounds
 0 <= pr0_t_x#1#1 <= 1
 0 <= pr0_t_x#2#1 <= 1
 0 <= pr0_t_x#3#1 <= 1
 0 <= pr0_t_x#4#1 <= 1
 0 <= pr0_t_x#5#1 <= 1
 0 <= pr0_t_x#6#1 <= 1
 0 <= pr0_t_x#7#1 <= 1
 0 <= pr0_t_x#8#1 <= 1
 0 <= pr0_t_x#9#1 <= 1
 0 <= pr0_t_x#10#1 <= 1
 0 <= pr0_t_x#11#1 <= 1
 0 <= pr0_t_x#12#1 <= 1
 0 <= pr0_t_x#13#1 <= 1
 0 <= pr0_t_x#14#1 <= 1
 0 <= pr0_t_x#15#1 <= 1
 0 <= pr0_t_x#16#1 <= 1
 0 <= pr0_t_x#17#1 <= 1
 0 <= pr0_t_x#18#1 <= 1
 0 <= pr0_t_x#19#1 <= 1
 0 <= pr0_t_x#20#1 <= 1
 0 <= pr0_t_x#21#1 <= 1
 0 <= pr0_t_x#22#1 <= 1
 0 <= pr0_t_x#23#1 <= 1
 0 <= pr0_t_x#24#1 <= 1
 0 <= pr0_t_x#25#1 <= 1
 0 <= pr0_t_x#26#1 <= 1
 0 <= pr0_t_x#27#1 <= 1
 0 <= pr0_t_x#28#1 <= 1
 0 <= pr0_t_x#29#1 <= 1
 0 <= pr0_t_x#30#1 <= 1
 0 <= pr0_t_y#1 <= 1
Binaries
 pr0_t_x#1#1 pr0_t_x#2#1 pr0_t_x#3#1 pr0_t_x#4#1 pr0_t_x#5#1 pr0_t_x#6#1 pr0_t_x#7#1 pr0_t_x#8#1 pr0_t_x#9#1
 pr0_t_x#10#1 pr0_t_x#11#1 pr0_t_x#12#1 pr0_t_x#13#1 pr0_t_x#14#1 pr0_t_x#15#1 pr0_t_x#16#1 pr0_t_x#17#1
 pr0_t_x#18#1 pr0_t_x#19#1 pr0_t_x#20#1 pr0_t_x#21#1 pr0_t_x#22#1 pr0_t_x#23#1 pr0_t_x#24#1 pr0_t_x#25#1
 pr0_t_x#26#1 pr0_t_x#27#1 pr0_t_x#28#1 pr0_t_x#29#1 pr0_t_x#30#1 pr0_t_y#1
End
