examples/Coloring/data/1-FullIns_3.col
c FILE: 1-FullIns_3.col

c SOURCE: M. Caramia (caramia@iac.rm.cnr.it) and P. Dell'Olmo (paolo.dellolmo@uniroma1.it)

c DESCRIPTION: 1-FullIns graph of order 3

p edge 30 100
e 1 2
e 1 4
e 1 11
e 1 13
e 2 3
e 2 10
e 2 12
e 3 6
e 3 8
e 3 11
e 3 15
e 3 17
e 4 5
e 4 8
e 4 10
e 4 14
e 4 17
e 5 7
e 5 9
e 5 13
e 5 16
e 5 18
e 6 7
e 6 9
e 6 12
e 6 16
e 6 18
e 7 8
e 7 9
e 7 14
e 7 15
e 7 17
e 7 18
e 8 9
e 8 12
e 8 13
e 8 16
e 8 18
e 9 14
e 9 15
e 9 16
e 9 17
e 10 20
e 10 22
e 10 29
e 11 19
e 11 21
e 11 29
e 12 20
e 12 24
e 12 26
e 12 29
e 13 19
e 13 23
e 13 26
e 13 29
e 14 22
e 14 25
e 14 27
e 14 29
e 15 21
e 15 25
e 15 27
e 15 29
e 16 23
e 16 24
e 16 26
e 16 27
e 16 29
e 17 21
e 17 22
e 17 25
e 17 27
e 17 29
e 18 23
e 18 24
e 18 25
e 18 26
e 18 29
e 19 28
e 19 30
e 20 28
e 20 30
e 21 28
e 21 30
e 22 28
e 22 30
e 23 28
e 23 30
e 24 28
e 24 30
e 25 28
e 25 30
e 26 28
e 26 30
e 27 28
e 27 30
e 28 29
e 28 30
e 29 30
